results-heuristic-start/mps/Fattahi_setup_10_modified_old_makespan.mps
NAME JobShopModel
ROWS
 N  OBJ
 E  c0      
 E  c1      
 E  c2      
 E  c3      
 E  c4      
 E  c5      
 E  c6      
 E  c7      
 E  c8      
 E  c9      
 E  c10     
 E  c11     
 L  c12     
 L  c13     
 L  c14     
 L  c15     
 L  c16     
 L  c17     
 L  c18     
 L  c19     
 L  c20     
 L  c21     
 L  c22     
 L  c23     
 L  c24     
 L  c25     
 L  c26     
 L  c27     
 L  c28     
 L  c29     
 L  c30     
 L  c31     
 G  c32     
 G  c33     
 G  c34     
 G  c35     
 G  c36     
 G  c37     
 G  c38     
 G  c39     
 G  c40     
 G  c41     
 G  c42     
 G  c43     
 G  c44     
 G  c45     
 G  c46     
 G  c47     
 G  c48     
 G  c49     
 G  c50     
 G  c51     
 G  c52     
 G  c53     
 G  c54     
 G  c55     
 G  c56     
 G  c57     
 G  c58     
 G  c59     
 G  c60     
 G  c61     
 G  c62     
 G  c63     
 G  c64     
 G  c65     
 G  c66     
 G  c67     
 G  c68     
 G  c69     
 G  c70     
 G  c71     
 G  c72     
 G  c73     
 G  c74     
 G  c75     
 G  c76     
 G  c77     
 G  c78     
 G  c79     
 G  c80     
 G  c81     
 G  c82     
 G  c83     
 G  c84     
 G  c85     
 G  c86     
 G  c87     
 G  c88     
 G  c89     
 G  c90     
 G  c91     
 G  c92     
 G  c93     
 G  c94     
 G  c95     
 G  c96     
 G  c97     
 G  c98     
 G  c99     
 G  c100    
 G  c101    
 G  c102    
 G  c103    
 G  c104    
 G  c105    
 G  c106    
 G  c107    
 G  c108    
 G  c109    
 G  c110    
 G  c111    
 G  c112    
 G  c113    
 G  c114    
 G  c115    
 G  c116    
 G  c117    
 G  c118    
 G  c119    
 G  c120    
 G  c121    
 G  c122    
 G  c123    
 G  c124    
 G  c125    
 G  c126    
 G  c127    
 G  c128    
 G  c129    
 G  c130    
 G  c131    
COLUMNS
    MARKER    'MARKER'                 'INTORG'
    y[0,0,3]  c0        1
    y[0,0,3]  c12       -1000000
    y[0,0,3]  c32       -1000000
    y[0,0,3]  c33       -1000000
    y[0,0,3]  c36       -1000000
    y[0,0,3]  c37       -1000000
    y[0,0,3]  c40       -1000000
    y[0,0,3]  c41       -1000000
    y[0,0,3]  c44       -1000000
    y[0,0,3]  c45       -1000000
    y[0,0,3]  c131      -150
    y[0,0,4]  c0        1
    y[0,0,4]  c13       -1000000
    y[0,0,4]  c34       -1000000
    y[0,0,4]  c35       -1000000
    y[0,0,4]  c38       -1000000
    y[0,0,4]  c39       -1000000
    y[0,0,4]  c42       -1000000
    y[0,0,4]  c43       -1000000
    y[0,0,4]  c131      -160
    y[0,1,1]  c1        1
    y[0,1,1]  c14       -1000000
    y[0,1,1]  c46       -1000000
    y[0,1,1]  c47       -1000000
    y[0,1,1]  c50       -1000000
    y[0,1,1]  c51       -1000000
    y[0,1,1]  c54       -1000000
    y[0,1,1]  c55       -1000000
    y[0,1,1]  c123      -130
    y[0,1,3]  c1        1
    y[0,1,3]  c15       -1000000
    y[0,1,3]  c32       -1000000
    y[0,1,3]  c33       -1000000
    y[0,1,3]  c44       -1000000
    y[0,1,3]  c45       -1000000
    y[0,1,3]  c48       -1000000
    y[0,1,3]  c49       -1000000
    y[0,1,3]  c52       -1000000
    y[0,1,3]  c53       -1000000
    y[0,1,3]  c123      -140
    y[0,2,0]  c2        1
    y[0,2,0]  c16       -1000000
    y[0,2,0]  c56       -1000000
    y[0,2,0]  c57       -1000000
    y[0,2,0]  c58       -1000000
    y[0,2,0]  c59       -1000000
    y[0,2,0]  c60       -1000000
    y[0,2,0]  c61       -1000000
    y[0,2,0]  c101      -480
    y[0,2,0]  c124      -147
    y[1,0,4]  c3        1
    y[1,0,4]  c17       -1000000
    y[1,0,4]  c34       -1000000
    y[1,0,4]  c35       -1000000
    y[1,0,4]  c62       -1000000
    y[1,0,4]  c63       -1000000
    y[1,0,4]  c64       -1000000
    y[1,0,4]  c65       -1000000
    y[1,0,4]  c131      -178
    y[1,1,1]  c4        1
    y[1,1,1]  c18       -1000000
    y[1,1,1]  c46       -1000000
    y[1,1,1]  c47       -1000000
    y[1,1,1]  c70       -1000000
    y[1,1,1]  c71       -1000000
    y[1,1,1]  c74       -1000000
    y[1,1,1]  c75       -1000000
    y[1,1,1]  c125      -66
    y[1,1,2]  c4        1
    y[1,1,2]  c19       -1000000
    y[1,1,2]  c66       -1000000
    y[1,1,2]  c67       -1000000
    y[1,1,2]  c68       -1000000
    y[1,1,2]  c69       -1000000
    y[1,1,2]  c72       -1000000
    y[1,1,2]  c73       -1000000
    y[1,1,2]  c76       -1000000
    y[1,1,2]  c77       -1000000
    y[1,1,2]  c125      -87
    y[1,2,0]  c5        1
    y[1,2,0]  c20       -1000000
    y[1,2,0]  c56       -1000000
    y[1,2,0]  c57       -1000000
    y[1,2,0]  c80       -1000000
    y[1,2,0]  c81       -1000000
    y[1,2,0]  c84       -1000000
    y[1,2,0]  c85       -1000000
    y[1,2,0]  c106      -480
    y[1,2,0]  c126      -214
    y[1,2,2]  c5        1
    y[1,2,2]  c21       -1000000
    y[1,2,2]  c66       -1000000
    y[1,2,2]  c67       -1000000
    y[1,2,2]  c76       -1000000
    y[1,2,2]  c77       -1000000
    y[1,2,2]  c78       -1000000
    y[1,2,2]  c79       -1000000
    y[1,2,2]  c82       -1000000
    y[1,2,2]  c83       -1000000
    y[1,2,2]  c108      -480
    y[1,2,2]  c126      -150
    y[2,0,3]  c6        1
    y[2,0,3]  c22       -1000000
    y[2,0,3]  c36       -1000000
    y[2,0,3]  c37       -1000000
    y[2,0,3]  c48       -1000000
    y[2,0,3]  c49       -1000000
    y[2,0,3]  c86       -1000000
    y[2,0,3]  c87       -1000000
    y[2,0,3]  c131      -190
    y[2,0,4]  c6        1
    y[2,0,4]  c23       -1000000
    y[2,0,4]  c38       -1000000
    y[2,0,4]  c39       -1000000
    y[2,0,4]  c62       -1000000
    y[2,0,4]  c63       -1000000
    y[2,0,4]  c88       -1000000
    y[2,0,4]  c89       -1000000
    y[2,0,4]  c131      -100
    y[2,1,2]  c7        1
    y[2,1,2]  c24       -1000000
    y[2,1,2]  c68       -1000000
    y[2,1,2]  c69       -1000000
    y[2,1,2]  c78       -1000000
    y[2,1,2]  c79       -1000000
    y[2,1,2]  c90       -1000000
    y[2,1,2]  c91       -1000000
    y[2,1,2]  c127      -180
    y[2,2,0]  c8        1
    y[2,2,0]  c25       -1000000
    y[2,2,0]  c58       -1000000
    y[2,2,0]  c59       -1000000
    y[2,2,0]  c80       -1000000
    y[2,2,0]  c81       -1000000
    y[2,2,0]  c92       -1000000
    y[2,2,0]  c93       -1000000
    y[2,2,0]  c113      -480
    y[2,2,0]  c128      -87
    y[2,2,1]  c8        1
    y[2,2,1]  c26       -1000000
    y[2,2,1]  c50       -1000000
    y[2,2,1]  c51       -1000000
    y[2,2,1]  c70       -1000000
    y[2,2,1]  c71       -1000000
    y[2,2,1]  c94       -1000000
    y[2,2,1]  c95       -1000000
    y[2,2,1]  c115      -480
    y[2,2,1]  c128      -62
    y[3,0,2]  c9        1
    y[3,0,2]  c27       -1000000
    y[3,0,2]  c72       -1000000
    y[3,0,2]  c73       -1000000
    y[3,0,2]  c82       -1000000
    y[3,0,2]  c83       -1000000
    y[3,0,2]  c90       -1000000
    y[3,0,2]  c91       -1000000
    y[3,0,2]  c131      -136
    y[3,0,3]  c9        1
    y[3,0,3]  c28       -1000000
    y[3,0,3]  c40       -1000000
    y[3,0,3]  c41       -1000000
    y[3,0,3]  c52       -1000000
    y[3,0,3]  c53       -1000000
    y[3,0,3]  c86       -1000000
    y[3,0,3]  c87       -1000000
    y[3,0,3]  c131      -145
    y[3,1,4]  c10       1
    y[3,1,4]  c29       -1000000
    y[3,1,4]  c42       -1000000
    y[3,1,4]  c43       -1000000
    y[3,1,4]  c64       -1000000
    y[3,1,4]  c65       -1000000
    y[3,1,4]  c88       -1000000
    y[3,1,4]  c89       -1000000
    y[3,1,4]  c129      -173
    y[3,2,0]  c11       1
    y[3,2,0]  c30       -1000000
    y[3,2,0]  c60       -1000000
    y[3,2,0]  c61       -1000000
    y[3,2,0]  c84       -1000000
    y[3,2,0]  c85       -1000000
    y[3,2,0]  c92       -1000000
    y[3,2,0]  c93       -1000000
    y[3,2,0]  c120      -480
    y[3,2,0]  c130      -87
    y[3,2,1]  c11       1
    y[3,2,1]  c31       -1000000
    y[3,2,1]  c54       -1000000
    y[3,2,1]  c55       -1000000
    y[3,2,1]  c74       -1000000
    y[3,2,1]  c75       -1000000
    y[3,2,1]  c94       -1000000
    y[3,2,1]  c95       -1000000
    y[3,2,1]  c122      -480
    y[3,2,1]  c130      -65
    x[0,0,0,0]  OBJ       0
    x[0,0,0,1]  c32       -1000000
    x[0,0,0,1]  c33       1000000
    x[0,0,0,2]  OBJ       0
    x[0,0,1,0]  c34       -1000000
    x[0,0,1,0]  c35       1000000
    x[0,0,1,1]  OBJ       0
    x[0,0,1,2]  OBJ       0
    x[0,0,2,0]  c36       -1000000
    x[0,0,2,0]  c37       1000000
    x[0,0,2,0]  c38       -1000000
    x[0,0,2,0]  c39       1000000
    x[0,0,2,1]  OBJ       0
    x[0,0,2,2]  OBJ       0
    x[0,0,3,0]  c40       -1000000
    x[0,0,3,0]  c41       1000000
    x[0,0,3,1]  c42       -1000000
    x[0,0,3,1]  c43       1000000
    x[0,0,3,2]  OBJ       0
    x[0,1,0,0]  c44       -1000000
    x[0,1,0,0]  c45       1000000
    x[0,1,0,1]  OBJ       0
    x[0,1,0,2]  OBJ       0
    x[0,1,1,0]  OBJ       0
    x[0,1,1,1]  c46       -1000000
    x[0,1,1,1]  c47       1000000
    x[0,1,1,2]  OBJ       0
    x[0,1,2,0]  c48       -1000000
    x[0,1,2,0]  c49       1000000
    x[0,1,2,1]  OBJ       0
    x[0,1,2,2]  c50       -1000000
    x[0,1,2,2]  c51       1000000
    x[0,1,3,0]  c52       -1000000
    x[0,1,3,0]  c53       1000000
    x[0,1,3,1]  OBJ       0
    x[0,1,3,2]  c54       -1000000
    x[0,1,3,2]  c55       1000000
    x[0,2,0,0]  OBJ       0
    x[0,2,0,1]  OBJ       0
    x[0,2,0,2]  OBJ       0
    x[0,2,1,0]  OBJ       0
    x[0,2,1,1]  OBJ       0
    x[0,2,1,2]  c56       -1000000
    x[0,2,1,2]  c57       1000000
    x[0,2,2,0]  OBJ       0
    x[0,2,2,1]  OBJ       0
    x[0,2,2,2]  c58       -1000000
    x[0,2,2,2]  c59       1000000
    x[0,2,3,0]  OBJ       0
    x[0,2,3,1]  OBJ       0
    x[0,2,3,2]  c60       -1000000
    x[0,2,3,2]  c61       1000000
    x[1,0,0,0]  OBJ       0
    x[1,0,0,1]  OBJ       0
    x[1,0,0,2]  OBJ       0
    x[1,0,1,0]  OBJ       0
    x[1,0,1,1]  OBJ       0
    x[1,0,1,2]  OBJ       0
    x[1,0,2,0]  c62       -1000000
    x[1,0,2,0]  c63       1000000
    x[1,0,2,1]  OBJ       0
    x[1,0,2,2]  OBJ       0
    x[1,0,3,0]  OBJ       0
    x[1,0,3,1]  c64       -1000000
    x[1,0,3,1]  c65       1000000
    x[1,0,3,2]  OBJ       0
    x[1,1,0,0]  OBJ       0
    x[1,1,0,1]  OBJ       0
    x[1,1,0,2]  OBJ       0
    x[1,1,1,0]  OBJ       0
    x[1,1,1,1]  OBJ       0
    x[1,1,1,2]  c66       -1000000
    x[1,1,1,2]  c67       1000000
    x[1,1,2,0]  OBJ       0
    x[1,1,2,1]  c68       -1000000
    x[1,1,2,1]  c69       1000000
    x[1,1,2,2]  c70       -1000000
    x[1,1,2,2]  c71       1000000
    x[1,1,3,0]  c72       -1000000
    x[1,1,3,0]  c73       1000000
    x[1,1,3,1]  OBJ       0
    x[1,1,3,2]  c74       -1000000
    x[1,1,3,2]  c75       1000000
    x[1,2,0,0]  OBJ       0
    x[1,2,0,1]  OBJ       0
    x[1,2,0,2]  OBJ       0
    x[1,2,1,0]  OBJ       0
    x[1,2,1,1]  c76       -1000000
    x[1,2,1,1]  c77       1000000
    x[1,2,1,2]  OBJ       0
    x[1,2,2,0]  OBJ       0
    x[1,2,2,1]  c78       -1000000
    x[1,2,2,1]  c79       1000000
    x[1,2,2,2]  c80       -1000000
    x[1,2,2,2]  c81       1000000
    x[1,2,3,0]  c82       -1000000
    x[1,2,3,0]  c83       1000000
    x[1,2,3,1]  OBJ       0
    x[1,2,3,2]  c84       -1000000
    x[1,2,3,2]  c85       1000000
    x[2,0,0,0]  OBJ       0
    x[2,0,0,1]  OBJ       0
    x[2,0,0,2]  OBJ       0
    x[2,0,1,0]  OBJ       0
    x[2,0,1,1]  OBJ       0
    x[2,0,1,2]  OBJ       0
    x[2,0,2,0]  OBJ       0
    x[2,0,2,1]  OBJ       0
    x[2,0,2,2]  OBJ       0
    x[2,0,3,0]  c86       -1000000
    x[2,0,3,0]  c87       1000000
    x[2,0,3,1]  c88       -1000000
    x[2,0,3,1]  c89       1000000
    x[2,0,3,2]  OBJ       0
    x[2,1,0,0]  OBJ       0
    x[2,1,0,1]  OBJ       0
    x[2,1,0,2]  OBJ       0
    x[2,1,1,0]  OBJ       0
    x[2,1,1,1]  OBJ       0
    x[2,1,1,2]  OBJ       0
    x[2,1,2,0]  OBJ       0
    x[2,1,2,1]  OBJ       0
    x[2,1,2,2]  OBJ       0
    x[2,1,3,0]  c90       -1000000
    x[2,1,3,0]  c91       1000000
    x[2,1,3,1]  OBJ       0
    x[2,1,3,2]  OBJ       0
    x[2,2,0,0]  OBJ       0
    x[2,2,0,1]  OBJ       0
    x[2,2,0,2]  OBJ       0
    x[2,2,1,0]  OBJ       0
    x[2,2,1,1]  OBJ       0
    x[2,2,1,2]  OBJ       0
    x[2,2,2,0]  OBJ       0
    x[2,2,2,1]  OBJ       0
    x[2,2,2,2]  OBJ       0
    x[2,2,3,0]  OBJ       0
    x[2,2,3,1]  OBJ       0
    x[2,2,3,2]  c92       -1000000
    x[2,2,3,2]  c93       1000000
    x[2,2,3,2]  c94       -1000000
    x[2,2,3,2]  c95       1000000
    x[3,0,0,0]  OBJ       0
    x[3,0,0,1]  OBJ       0
    x[3,0,0,2]  OBJ       0
    x[3,0,1,0]  OBJ       0
    x[3,0,1,1]  OBJ       0
    x[3,0,1,2]  OBJ       0
    x[3,0,2,0]  OBJ       0
    x[3,0,2,1]  OBJ       0
    x[3,0,2,2]  OBJ       0
    x[3,0,3,0]  OBJ       0
    x[3,0,3,1]  OBJ       0
    x[3,0,3,2]  OBJ       0
    x[3,1,0,0]  OBJ       0
    x[3,1,0,1]  OBJ       0
    x[3,1,0,2]  OBJ       0
    x[3,1,1,0]  OBJ       0
    x[3,1,1,1]  OBJ       0
    x[3,1,1,2]  OBJ       0
    x[3,1,2,0]  OBJ       0
    x[3,1,2,1]  OBJ       0
    x[3,1,2,2]  OBJ       0
    x[3,1,3,0]  OBJ       0
    x[3,1,3,1]  OBJ       0
    x[3,1,3,2]  OBJ       0
    x[3,2,0,0]  OBJ       0
    x[3,2,0,1]  OBJ       0
    x[3,2,0,2]  OBJ       0
    x[3,2,1,0]  OBJ       0
    x[3,2,1,1]  OBJ       0
    x[3,2,1,2]  OBJ       0
    x[3,2,2,0]  OBJ       0
    x[3,2,2,1]  OBJ       0
    x[3,2,2,2]  OBJ       0
    x[3,2,3,0]  OBJ       0
    x[3,2,3,1]  OBJ       0
    x[3,2,3,2]  OBJ       0
    MARKER    'MARKER'                 'INTEND'
    s[0,0,3]  c12       1
    s[0,0,3]  c32       1
    s[0,0,3]  c33       -1
    s[0,0,3]  c36       1
    s[0,0,3]  c37       -1
    s[0,0,3]  c40       1
    s[0,0,3]  c41       -1
    s[0,0,3]  c44       -1
    s[0,0,3]  c45       1
    s[0,0,3]  c96       1
    s[0,0,3]  c123      1
    s[0,0,3]  c131      -1
    s[0,0,4]  c13       1
    s[0,0,4]  c34       1
    s[0,0,4]  c35       -1
    s[0,0,4]  c38       1
    s[0,0,4]  c39       -1
    s[0,0,4]  c42       1
    s[0,0,4]  c43       -1
    s[0,0,4]  c97       1
    s[0,0,4]  c123      1
    s[0,0,4]  c131      -1
    s[0,1,1]  c14       1
    s[0,1,1]  c46       1
    s[0,1,1]  c47       -1
    s[0,1,1]  c50       1
    s[0,1,1]  c51       -1
    s[0,1,1]  c54       1
    s[0,1,1]  c55       -1
    s[0,1,1]  c98       1
    s[0,1,1]  c123      -1
    s[0,1,1]  c124      1
    s[0,1,3]  c15       1
    s[0,1,3]  c32       -1
    s[0,1,3]  c33       1
    s[0,1,3]  c44       1
    s[0,1,3]  c45       -1
    s[0,1,3]  c48       1
    s[0,1,3]  c49       -1
    s[0,1,3]  c52       1
    s[0,1,3]  c53       -1
    s[0,1,3]  c99       1
    s[0,1,3]  c123      -1
    s[0,1,3]  c124      1
    s[0,2,0]  c16       1
    s[0,2,0]  c56       1
    s[0,2,0]  c57       -1
    s[0,2,0]  c58       1
    s[0,2,0]  c59       -1
    s[0,2,0]  c60       1
    s[0,2,0]  c61       -1
    s[0,2,0]  c100      1
    s[0,2,0]  c101      1
    s[0,2,0]  c124      -1
    s[1,0,4]  c17       1
    s[1,0,4]  c34       -1
    s[1,0,4]  c35       1
    s[1,0,4]  c62       1
    s[1,0,4]  c63       -1
    s[1,0,4]  c64       1
    s[1,0,4]  c65       -1
    s[1,0,4]  c102      1
    s[1,0,4]  c125      1
    s[1,0,4]  c131      -1
    s[1,1,1]  c18       1
    s[1,1,1]  c46       -1
    s[1,1,1]  c47       1
    s[1,1,1]  c70       1
    s[1,1,1]  c71       -1
    s[1,1,1]  c74       1
    s[1,1,1]  c75       -1
    s[1,1,1]  c103      1
    s[1,1,1]  c125      -1
    s[1,1,1]  c126      1
    s[1,1,2]  c19       1
    s[1,1,2]  c66       1
    s[1,1,2]  c67       -1
    s[1,1,2]  c68       1
    s[1,1,2]  c69       -1
    s[1,1,2]  c72       1
    s[1,1,2]  c73       -1
    s[1,1,2]  c76       -1
    s[1,1,2]  c77       1
    s[1,1,2]  c104      1
    s[1,1,2]  c125      -1
    s[1,1,2]  c126      1
    s[1,2,0]  c20       1
    s[1,2,0]  c56       -1
    s[1,2,0]  c57       1
    s[1,2,0]  c80       1
    s[1,2,0]  c81       -1
    s[1,2,0]  c84       1
    s[1,2,0]  c85       -1
    s[1,2,0]  c105      1
    s[1,2,0]  c106      1
    s[1,2,0]  c126      -1
    s[1,2,2]  c21       1
    s[1,2,2]  c66       -1
    s[1,2,2]  c67       1
    s[1,2,2]  c76       1
    s[1,2,2]  c77       -1
    s[1,2,2]  c78       1
    s[1,2,2]  c79       -1
    s[1,2,2]  c82       1
    s[1,2,2]  c83       -1
    s[1,2,2]  c107      1
    s[1,2,2]  c108      1
    s[1,2,2]  c126      -1
    s[2,0,3]  c22       1
    s[2,0,3]  c36       -1
    s[2,0,3]  c37       1
    s[2,0,3]  c48       -1
    s[2,0,3]  c49       1
    s[2,0,3]  c86       1
    s[2,0,3]  c87       -1
    s[2,0,3]  c109      1
    s[2,0,3]  c127      1
    s[2,0,3]  c131      -1
    s[2,0,4]  c23       1
    s[2,0,4]  c38       -1
    s[2,0,4]  c39       1
    s[2,0,4]  c62       -1
    s[2,0,4]  c63       1
    s[2,0,4]  c88       1
    s[2,0,4]  c89       -1
    s[2,0,4]  c110      1
    s[2,0,4]  c127      1
    s[2,0,4]  c131      -1
    s[2,1,2]  c24       1
    s[2,1,2]  c68       -1
    s[2,1,2]  c69       1
    s[2,1,2]  c78       -1
    s[2,1,2]  c79       1
    s[2,1,2]  c90       1
    s[2,1,2]  c91       -1
    s[2,1,2]  c111      1
    s[2,1,2]  c127      -1
    s[2,1,2]  c128      1
    s[2,2,0]  c25       1
    s[2,2,0]  c58       -1
    s[2,2,0]  c59       1
    s[2,2,0]  c80       -1
    s[2,2,0]  c81       1
    s[2,2,0]  c92       1
    s[2,2,0]  c93       -1
    s[2,2,0]  c112      1
    s[2,2,0]  c113      1
    s[2,2,0]  c128      -1
    s[2,2,1]  c26       1
    s[2,2,1]  c50       -1
    s[2,2,1]  c51       1
    s[2,2,1]  c70       -1
    s[2,2,1]  c71       1
    s[2,2,1]  c94       1
    s[2,2,1]  c95       -1
    s[2,2,1]  c114      1
    s[2,2,1]  c115      1
    s[2,2,1]  c128      -1
    s[3,0,2]  c27       1
    s[3,0,2]  c72       -1
    s[3,0,2]  c73       1
    s[3,0,2]  c82       -1
    s[3,0,2]  c83       1
    s[3,0,2]  c90       -1
    s[3,0,2]  c91       1
    s[3,0,2]  c116      1
    s[3,0,2]  c129      1
    s[3,0,2]  c131      -1
    s[3,0,3]  c28       1
    s[3,0,3]  c40       -1
    s[3,0,3]  c41       1
    s[3,0,3]  c52       -1
    s[3,0,3]  c53       1
    s[3,0,3]  c86       -1
    s[3,0,3]  c87       1
    s[3,0,3]  c117      1
    s[3,0,3]  c129      1
    s[3,0,3]  c131      -1
    s[3,1,4]  c29       1
    s[3,1,4]  c42       -1
    s[3,1,4]  c43       1
    s[3,1,4]  c64       -1
    s[3,1,4]  c65       1
    s[3,1,4]  c88       -1
    s[3,1,4]  c89       1
    s[3,1,4]  c118      1
    s[3,1,4]  c129      -1
    s[3,1,4]  c130      1
    s[3,2,0]  c30       1
    s[3,2,0]  c60       -1
    s[3,2,0]  c61       1
    s[3,2,0]  c84       -1
    s[3,2,0]  c85       1
    s[3,2,0]  c92       -1
    s[3,2,0]  c93       1
    s[3,2,0]  c119      1
    s[3,2,0]  c120      1
    s[3,2,0]  c130      -1
    s[3,2,1]  c31       1
    s[3,2,1]  c54       -1
    s[3,2,1]  c55       1
    s[3,2,1]  c74       -1
    s[3,2,1]  c75       1
    s[3,2,1]  c94       -1
    s[3,2,1]  c95       1
    s[3,2,1]  c121      1
    s[3,2,1]  c122      1
    s[3,2,1]  c130      -1
    MARKER    'MARKER'                 'INTORG'
    Z_FO      OBJ       1
    Z_FO      c131      1
    MARKER    'MARKER'                 'INTEND'
RHS
    RHS1      c0        1
    RHS1      c1        1
    RHS1      c2        1
    RHS1      c3        1
    RHS1      c4        1
    RHS1      c5        1
    RHS1      c6        1
    RHS1      c7        1
    RHS1      c8        1
    RHS1      c9        1
    RHS1      c10       1
    RHS1      c11       1
    RHS1      c32       -2999714
    RHS1      c33       -1999724
    RHS1      c34       -2999662
    RHS1      c35       -1999515
    RHS1      c36       -2999683
    RHS1      c37       -1999250
    RHS1      c38       -2999116
    RHS1      c39       -1999436
    RHS1      c40       -2999565
    RHS1      c41       -1999265
    RHS1      c42       -2999395
    RHS1      c43       -1999567
    RHS1      c44       -2999724
    RHS1      c45       -1999714
    RHS1      c46       -2999831
    RHS1      c47       -1999680
    RHS1      c48       -2999474
    RHS1      c49       -1999678
    RHS1      c50       -2999575
    RHS1      c51       -1999205
    RHS1      c52       -2999549
    RHS1      c53       -1999532
    RHS1      c54       -2999755
    RHS1      c55       -1999578
    RHS1      c56       -2999345
    RHS1      c57       -1999739
    RHS1      c58       -2999679
    RHS1      c59       -1999722
    RHS1      c60       -2999537
    RHS1      c61       -1999574
    RHS1      c62       -2999504
    RHS1      c63       -1999390
    RHS1      c64       -2999027
    RHS1      c65       -1999225
    RHS1      c66       -2999379
    RHS1      c67       -1999776
    RHS1      c68       -2999649
    RHS1      c69       -1999718
    RHS1      c70       -2999575
    RHS1      c71       -1999089
    RHS1      c72       -2999614
    RHS1      c73       -1999826
    RHS1      c74       -2999520
    RHS1      c75       -1999481
    RHS1      c76       -2999776
    RHS1      c77       -1999379
    RHS1      c78       -2999405
    RHS1      c79       -1999394
    RHS1      c80       -2999710
    RHS1      c81       -1999608
    RHS1      c82       -2998969
    RHS1      c83       -1999265
    RHS1      c84       -2999535
    RHS1      c85       -1999183
    RHS1      c86       -2999555
    RHS1      c87       -1999634
    RHS1      c88       -2999673
    RHS1      c89       -1999508
    RHS1      c90       -2999471
    RHS1      c91       -1999452
    RHS1      c92       -2999168
    RHS1      c93       -1999633
    RHS1      c94       -2999853
    RHS1      c95       -1999785
BOUNDS
 BV BND1      y[0,0,3]
 BV BND1      y[0,0,4]
 BV BND1      y[0,1,1]
 BV BND1      y[0,1,3]
 BV BND1      y[0,2,0]
 BV BND1      y[1,0,4]
 BV BND1      y[1,1,1]
 BV BND1      y[1,1,2]
 BV BND1      y[1,2,0]
 BV BND1      y[1,2,2]
 BV BND1      y[2,0,3]
 BV BND1      y[2,0,4]
 BV BND1      y[2,1,2]
 BV BND1      y[2,2,0]
 BV BND1      y[2,2,1]
 BV BND1      y[3,0,2]
 BV BND1      y[3,0,3]
 BV BND1      y[3,1,4]
 BV BND1      y[3,2,0]
 BV BND1      y[3,2,1]
 BV BND1      x[0,0,0,0]
 BV BND1      x[0,0,0,1]
 BV BND1      x[0,0,0,2]
 BV BND1      x[0,0,1,0]
 BV BND1      x[0,0,1,1]
 BV BND1      x[0,0,1,2]
 BV BND1      x[0,0,2,0]
 BV BND1      x[0,0,2,1]
 BV BND1      x[0,0,2,2]
 BV BND1      x[0,0,3,0]
 BV BND1      x[0,0,3,1]
 BV BND1      x[0,0,3,2]
 BV BND1      x[0,1,0,0]
 BV BND1      x[0,1,0,1]
 BV BND1      x[0,1,0,2]
 BV BND1      x[0,1,1,0]
 BV BND1      x[0,1,1,1]
 BV BND1      x[0,1,1,2]
 BV BND1      x[0,1,2,0]
 BV BND1      x[0,1,2,1]
 BV BND1      x[0,1,2,2]
 BV BND1      x[0,1,3,0]
 BV BND1      x[0,1,3,1]
 BV BND1      x[0,1,3,2]
 BV BND1      x[0,2,0,0]
 BV BND1      x[0,2,0,1]
 BV BND1      x[0,2,0,2]
 BV BND1      x[0,2,1,0]
 BV BND1      x[0,2,1,1]
 BV BND1      x[0,2,1,2]
 BV BND1      x[0,2,2,0]
 BV BND1      x[0,2,2,1]
 BV BND1      x[0,2,2,2]
 BV BND1      x[0,2,3,0]
 BV BND1      x[0,2,3,1]
 BV BND1      x[0,2,3,2]
 BV BND1      x[1,0,0,0]
 BV BND1      x[1,0,0,1]
 BV BND1      x[1,0,0,2]
 BV BND1      x[1,0,1,0]
 BV BND1      x[1,0,1,1]
 BV BND1      x[1,0,1,2]
 BV BND1      x[1,0,2,0]
 BV BND1      x[1,0,2,1]
 BV BND1      x[1,0,2,2]
 BV BND1      x[1,0,3,0]
 BV BND1      x[1,0,3,1]
 BV BND1      x[1,0,3,2]
 BV BND1      x[1,1,0,0]
 BV BND1      x[1,1,0,1]
 BV BND1      x[1,1,0,2]
 BV BND1      x[1,1,1,0]
 BV BND1      x[1,1,1,1]
 BV BND1      x[1,1,1,2]
 BV BND1      x[1,1,2,0]
 BV BND1      x[1,1,2,1]
 BV BND1      x[1,1,2,2]
 BV BND1      x[1,1,3,0]
 BV BND1      x[1,1,3,1]
 BV BND1      x[1,1,3,2]
 BV BND1      x[1,2,0,0]
 BV BND1      x[1,2,0,1]
 BV BND1      x[1,2,0,2]
 BV BND1      x[1,2,1,0]
 BV BND1      x[1,2,1,1]
 BV BND1      x[1,2,1,2]
 BV BND1      x[1,2,2,0]
 BV BND1      x[1,2,2,1]
 BV BND1      x[1,2,2,2]
 BV BND1      x[1,2,3,0]
 BV BND1      x[1,2,3,1]
 BV BND1      x[1,2,3,2]
 BV BND1      x[2,0,0,0]
 BV BND1      x[2,0,0,1]
 BV BND1      x[2,0,0,2]
 BV BND1      x[2,0,1,0]
 BV BND1      x[2,0,1,1]
 BV BND1      x[2,0,1,2]
 BV BND1      x[2,0,2,0]
 BV BND1      x[2,0,2,1]
 BV BND1      x[2,0,2,2]
 BV BND1      x[2,0,3,0]
 BV BND1      x[2,0,3,1]
 BV BND1      x[2,0,3,2]
 BV BND1      x[2,1,0,0]
 BV BND1      x[2,1,0,1]
 BV BND1      x[2,1,0,2]
 BV BND1      x[2,1,1,0]
 BV BND1      x[2,1,1,1]
 BV BND1      x[2,1,1,2]
 BV BND1      x[2,1,2,0]
 BV BND1      x[2,1,2,1]
 BV BND1      x[2,1,2,2]
 BV BND1      x[2,1,3,0]
 BV BND1      x[2,1,3,1]
 BV BND1      x[2,1,3,2]
 BV BND1      x[2,2,0,0]
 BV BND1      x[2,2,0,1]
 BV BND1      x[2,2,0,2]
 BV BND1      x[2,2,1,0]
 BV BND1      x[2,2,1,1]
 BV BND1      x[2,2,1,2]
 BV BND1      x[2,2,2,0]
 BV BND1      x[2,2,2,1]
 BV BND1      x[2,2,2,2]
 BV BND1      x[2,2,3,0]
 BV BND1      x[2,2,3,1]
 BV BND1      x[2,2,3,2]
 BV BND1      x[3,0,0,0]
 BV BND1      x[3,0,0,1]
 BV BND1      x[3,0,0,2]
 BV BND1      x[3,0,1,0]
 BV BND1      x[3,0,1,1]
 BV BND1      x[3,0,1,2]
 BV BND1      x[3,0,2,0]
 BV BND1      x[3,0,2,1]
 BV BND1      x[3,0,2,2]
 BV BND1      x[3,0,3,0]
 BV BND1      x[3,0,3,1]
 BV BND1      x[3,0,3,2]
 BV BND1      x[3,1,0,0]
 BV BND1      x[3,1,0,1]
 BV BND1      x[3,1,0,2]
 BV BND1      x[3,1,1,0]
 BV BND1      x[3,1,1,1]
 BV BND1      x[3,1,1,2]
 BV BND1      x[3,1,2,0]
 BV BND1      x[3,1,2,1]
 BV BND1      x[3,1,2,2]
 BV BND1      x[3,1,3,0]
 BV BND1      x[3,1,3,1]
 BV BND1      x[3,1,3,2]
 BV BND1      x[3,2,0,0]
 BV BND1      x[3,2,0,1]
 BV BND1      x[3,2,0,2]
 BV BND1      x[3,2,1,0]
 BV BND1      x[3,2,1,1]
 BV BND1      x[3,2,1,2]
 BV BND1      x[3,2,2,0]
 BV BND1      x[3,2,2,1]
 BV BND1      x[3,2,2,2]
 BV BND1      x[3,2,3,0]
 BV BND1      x[3,2,3,1]
 BV BND1      x[3,2,3,2]
 LI BND1      Z_FO      0
ENDATA
